     Program PWSCF v.7.0 starts on 13Jul2022 at 17:13:25
        Git branch: master
        Last git commit: 28725dfbb9ee577d70cbdc372282dc9039605ca5
        Last git commit date: Tue Dec 21 15:37:27 2021 +0000
        Last git commit subject: Merge branch merge-develop-to-master into mas..

     R & G space division:  proc/nbgrp/npool/nimage =      10

     Reading input from mos2_scf.in
Warning: card &CELL ignored
Warning: card   CELL_DOFREE= 'IBRAV' ignored
Warning: card / ignored

     Current dimensions of program PWSCF are:
     Max number of different atomic species (ntypx) = 10
     Max number of k-points (npk) =  40000
     Max angular momentum in pseudopotentials (lmaxx) =  4
     file Mo.pbe-spn-kjpaw_psl.1.0.0.UPF: wavefunction(s)  4S 4D renormalized
     file S.pbe-nl-kjpaw_psl.1.0.0.UPF: wavefunction(s)  3S renormalized

     Subspace diagonalization in iterative solution of the eigenvalue problem:
     a serial algorithm will be used

     Using Slab Decomposition

     bravais-lattice index     =            4
     lattice parameter (alat)  =       3.1600  a.u.
     unit-cell volume          =     106.3020 (a.u.)^3
     number of atoms/cell      =            6
     number of atomic types    =            2
     number of electrons       =        52.00
     number of Kohn-Sham states=           26
     kinetic-energy cutoff     =      30.0000  Ry
     charge density cutoff     =     120.0000  Ry
     scf convergence threshold =      1.0E-08
     mixing beta               =       0.7000
     number of iterations used =            8  plain     mixing
     Exchange-correlation= SLA  PW   PBX  PBC
                           (   1   4   3   4   0   0   0)

     celldm(1)=   3.160000  celldm(2)=   0.000000  celldm(3)=   3.890000
     celldm(4)=   0.000000  celldm(5)=   0.000000  celldm(6)=   0.000000

     crystal axes: (cart. coord. in units of alat)
               a(1) = (   1.000000   0.000000   0.000000 )
               a(2) = (  -0.500000   0.866025   0.000000 )
               a(3) = (   0.000000   0.000000   3.890000 )

     reciprocal axes: (cart. coord. in units 2 pi/alat)
               b(1) = (  1.000000  0.577350 -0.000000 )
               b(2) = (  0.000000  1.154701  0.000000 )
               b(3) = (  0.000000 -0.000000  0.257069 )

     PseudoPot. # 1 for Mo read from file:
     ./pseudo/Mo.pbe-spn-kjpaw_psl.1.0.0.UPF
     MD5 check sum: 4396e0c640fcce5c25f020efccf1ab12
     Pseudo is Projector augmented-wave + core cor, Zval = 14.0
     Generated using &quot;atomic&quot; code by A. Dal Corso  v.6.3
     Shape of augmentation charge: PSQ
     Using radial grid of 1229 points,  6 beta functions with:
                l(1) =   0
                l(2) =   0
                l(3) =   1
                l(4) =   1
                l(5) =   2
                l(6) =   2
     Q(r) pseudized with 0 coefficients

     PseudoPot. # 2 for S  read from file:
     ./pseudo/S.pbe-nl-kjpaw_psl.1.0.0.UPF
     MD5 check sum: a0db168fa6a42edaf368e88c1856b871
     Pseudo is Projector augmented-wave + core cor, Zval =  6.0
     Generated using &quot;atomic&quot; code by A. Dal Corso  v.6.3
     Shape of augmentation charge: PSQ
     Using radial grid of 1151 points,  4 beta functions with:
                l(1) =   0
                l(2) =   0
                l(3) =   1
                l(4) =   1
     Q(r) pseudized with 0 coefficients

     atomic species   valence    mass     pseudopotential
        Mo            14.00    95.96000     Mo( 1.00)
        S              6.00    32.06500     S ( 1.00)

     24 Sym. Ops., with inversion, found (12 have fractional translation)

                                    s                        frac. trans.

      isym =  1     identity

 cryst.   s( 1) = (     1          0          0      )
                  (     0          1          0      )
                  (     0          0          1      )

 cart.    s( 1) = (  1.0000000  0.0000000  0.0000000 )
                  (  0.0000000  1.0000000  0.0000000 )
                  (  0.0000000  0.0000000  1.0000000 )

      isym =  2     180 deg rotation - cart. axis [0,0,1]

 cryst.   s( 2) = (    -1          0          0      )    f =(  0.0000000 )
                  (     0         -1          0      )       (  0.0000000 )
                  (     0          0          1      )       ( -0.5000000 )

 cart.    s( 2) = ( -1.0000000  0.0000000  0.0000000 )    f =(  0.0000000 )
                  (  0.0000000 -1.0000000  0.0000000 )       (  0.0000000 )
                  (  0.0000000  0.0000000  1.0000000 )       ( -1.9450000 )

[...]

      isym =  4     180 deg rotation - cart. axis [1,0,0]

[...]

      isym =  5      60 deg rotation - cryst. axis [0,0,1]

[...]

 cryst.   s( 8) = (    -1         -1          0      )
                  (     1          0          0      )
                  (     0          0          1      )

 cart.    s( 8) = ( -0.5000000  0.8660254  0.0000000 )
                  ( -0.8660254 -0.5000000  0.0000000 )
                  (  0.0000000  0.0000000  1.0000000 )

[...]

 cryst.   s( 9) = (     0         -1          0      )    f =(  0.0000000 )
                  (    -1          0          0      )       (  0.0000000 )
                  (     0          0         -1      )       (  0.5000000 )

 cart.    s( 9) = (  0.5000000 -0.8660254  0.0000000 )    f =(  0.0000000 )
                  ( -0.8660254 -0.5000000  0.0000000 )       (  0.0000000 )
                  (  0.0000000  0.0000000 -1.0000000 )       (  1.9450000 )

[...]

 cryst.   s(10) = (     1          1          0      )    f =(  0.0000000 )
                  (     0         -1          0      )       ( -0.0000000 )
                  (     0          0         -1      )       (  0.5000000 )

 cart.    s(10) = (  0.5000000  0.8660254  0.0000000 )    f =(  0.0000000 )
                  (  0.8660254 -0.5000000  0.0000000 )       ( -0.0000000 )
                  (  0.0000000  0.0000000 -1.0000000 )       (  1.9450000 )

[...]

 cryst.   s(11) = (    -1         -1          0      )
                  (     0          1          0      )
                  (     0          0         -1      )

 cart.    s(11) = ( -0.5000000 -0.8660254  0.0000000 )
                  ( -0.8660254  0.5000000  0.0000000 )
                  (  0.0000000  0.0000000 -1.0000000 )

      isym = 12     180 deg rotation - cryst. axis [1,1,0]

[...]

      isym = 13     inversion

[...]

      isym = 14     inv. 180 deg rotation - cart. axis [0,0,1]

[...]

      isym = 16     inv. 180 deg rotation - cart. axis [1,0,0]

[...]

      isym = 17     inv.  60 deg rotation - cryst. axis [0,0,1]

[...]

 cryst.   s(22) = (    -1         -1          0      )    f =(  0.0000000 )
                  (     0          1          0      )       ( -0.0000000 )
                  (     0          0          1      )       ( -0.5000000 )

 cart.    s(22) = ( -0.5000000 -0.8660254  0.0000000 )    f =(  0.0000000 )
                  ( -0.8660254  0.5000000  0.0000000 )       ( -0.0000000 )
                  (  0.0000000  0.0000000  1.0000000 )       ( -1.9450000 )

[...]

      isym = 24     inv. 180 deg rotation - cryst. axis [1,1,0]

 cryst.   s(24) = (     0         -1          0      )
                  (    -1          0          0      )
                  (     0          0          1      )

 cart.    s(24) = (  0.5000000 -0.8660254  0.0000000 )
                  ( -0.8660254 -0.5000000  0.0000000 )
                  (  0.0000000  0.0000000  1.0000000 )

     point group D_6h(6/mmm)
     there are 12 classes
     the character table:

       E     2C6   2C3   C2    3C2'  3C2'' i     2S3   2S6   s_h   3s_d  3s_v
A_1g   1.00  1.00  1.00  1.00  1.00  1.00  1.00  1.00  1.00  1.00  1.00  1.00
A_2g   1.00  1.00  1.00  1.00 -1.00 -1.00  1.00  1.00  1.00  1.00 -1.00 -1.00
B_1g   1.00 -1.00  1.00 -1.00  1.00 -1.00  1.00 -1.00  1.00 -1.00  1.00 -1.00
B_2g   1.00 -1.00  1.00 -1.00 -1.00  1.00  1.00 -1.00  1.00 -1.00 -1.00  1.00
E_1g   2.00  1.00 -1.00 -2.00  0.00  0.00  2.00  1.00 -1.00 -2.00  0.00  0.00
E_2g   2.00 -1.00 -1.00  2.00  0.00  0.00  2.00 -1.00 -1.00  2.00  0.00  0.00
A_1u   1.00  1.00  1.00  1.00  1.00  1.00 -1.00 -1.00 -1.00 -1.00 -1.00 -1.00
A_2u   1.00  1.00  1.00  1.00 -1.00 -1.00 -1.00 -1.00 -1.00 -1.00  1.00  1.00
B_1u   1.00 -1.00  1.00 -1.00  1.00 -1.00 -1.00  1.00 -1.00  1.00 -1.00  1.00
B_2u   1.00 -1.00  1.00 -1.00 -1.00  1.00 -1.00  1.00 -1.00  1.00  1.00 -1.00
E_1u   2.00  1.00 -1.00 -2.00  0.00  0.00 -2.00 -1.00  1.00  2.00  0.00  0.00
E_2u   2.00 -1.00 -1.00  2.00  0.00  0.00 -2.00  1.00  1.00 -2.00  0.00  0.00

     the symmetry operations in each class and the name of the first element:

     E        1
          identity
     2C6      5    6
           60 deg rotation - cryst. axis [0,0,1]
     2C3      7    8
          120 deg rotation - cryst. axis [0,0,1]
     C2       2
          180 deg rotation - cart. axis [0,0,1]
     3C2'     4   12   11
          180 deg rotation - cart. axis [1,0,0]
     3C2''    3    9   10
          180 deg rotation - cart. axis [0,1,0]
     i       13
          inversion
     2S3     17   18
          inv.  60 deg rotation - cryst. axis [0,0,1]
     2S6     19   20
          inv. 120 deg rotation - cryst. axis [0,0,1]
     s_h     14
          inv. 180 deg rotation - cart. axis [0,0,1]
     3s_d    16   24   23
          inv. 180 deg rotation - cart. axis [1,0,0]
     3s_v    15   21   22
          inv. 180 deg rotation - cart. axis [0,1,0]

   Cartesian axes

     site n.     atom                  positions (alat units)
         1           Mo  tau(   1) = (  -0.0000000   0.5773503   0.9725000  )
         2           Mo  tau(   2) = (   0.5000000   0.2886751   2.9175000  )
         3           S   tau(   3) = (  -0.0000000   0.5773503   3.3266269  )
         4           S   tau(   4) = (   0.5000000   0.2886751   0.5633731  )
         5           S   tau(   5) = (   0.5000000   0.2886751   1.3816269  )
         6           S   tau(   6) = (   0.0000000   0.5773503   2.5083731  )

   Crystallographic axes

     site n.     atom                  positions (cryst. coord.)
         1           Mo  tau(   1) = (  0.3333333  0.6666667  0.2500000  )
         2           Mo  tau(   2) = (  0.6666667  0.3333333  0.7500000  )
         3           S   tau(   3) = (  0.3333333  0.6666667  0.8551740  )
         4           S   tau(   4) = (  0.6666667  0.3333333  0.1448260  )
         5           S   tau(   5) = (  0.6666667  0.3333333  0.3551740  )
         6           S   tau(   6) = (  0.3333333  0.6666667  0.6448260  )

     number of k points=   133
                       cart. coord. in units 2pi/alat
        k(    1) = (   0.0000000   0.0000000   0.0000000), wk =   0.0011574
        k(    2) = (   0.0000000   0.0000000   0.0214225), wk =   0.0023148
        k(    3) = (   0.0000000   0.0000000   0.0428449), wk =   0.0023148
        k(    4) = (   0.0000000   0.0000000   0.0642674), wk =   0.0023148
        k(    5) = (   0.0000000   0.0000000   0.0856898), wk =   0.0023148
        k(    6) = (   0.0000000   0.0000000   0.1071123), wk =   0.0023148
        k(    7) = (   0.0000000   0.0000000  -0.1285347), wk =   0.0011574
        k(    8) = (   0.0000000   0.0962250   0.0000000), wk =   0.0069444
        k(    9) = (   0.0000000   0.0962250   0.0214225), wk =   0.0138889
        k(   10) = (   0.0000000   0.0962250   0.0428449), wk =   0.0138889
        k(   11) = (   0.0000000   0.0962250   0.0642674), wk =   0.0138889
        k(   12) = (   0.0000000   0.0962250   0.0856898), wk =   0.0138889
        k(   13) = (   0.0000000   0.0962250   0.1071123), wk =   0.0138889
        k(   14) = (   0.0000000   0.0962250  -0.1285347), wk =   0.0069444
        k(   15) = (   0.0000000   0.1924501   0.0000000), wk =   0.0069444
        k(   16) = (   0.0000000   0.1924501   0.0214225), wk =   0.0138889
        k(   17) = (   0.0000000   0.1924501   0.0428449), wk =   0.0138889
        k(   18) = (   0.0000000   0.1924501   0.0642674), wk =   0.0138889
        k(   19) = (   0.0000000   0.1924501   0.0856898), wk =   0.0138889
        k(   20) = (   0.0000000   0.1924501   0.1071123), wk =   0.0138889
        k(   21) = (   0.0000000   0.1924501  -0.1285347), wk =   0.0069444
        k(   22) = (   0.0000000   0.2886751   0.0000000), wk =   0.0069444
        k(   23) = (   0.0000000   0.2886751   0.0214225), wk =   0.0138889
        k(   24) = (   0.0000000   0.2886751   0.0428449), wk =   0.0138889
        k(   25) = (   0.0000000   0.2886751   0.0642674), wk =   0.0138889
        k(   26) = (   0.0000000   0.2886751   0.0856898), wk =   0.0138889
        k(   27) = (   0.0000000   0.2886751   0.1071123), wk =   0.0138889
        k(   28) = (   0.0000000   0.2886751  -0.1285347), wk =   0.0069444
        k(   29) = (   0.0000000   0.3849002   0.0000000), wk =   0.0069444
        k(   30) = (   0.0000000   0.3849002   0.0214225), wk =   0.0138889
        k(   31) = (   0.0000000   0.3849002   0.0428449), wk =   0.0138889
        k(   32) = (   0.0000000   0.3849002   0.0642674), wk =   0.0138889
        k(   33) = (   0.0000000   0.3849002   0.0856898), wk =   0.0138889
        k(   34) = (   0.0000000   0.3849002   0.1071123), wk =   0.0138889
        k(   35) = (   0.0000000   0.3849002  -0.1285347), wk =   0.0069444
        k(   36) = (   0.0000000   0.4811252   0.0000000), wk =   0.0069444
        k(   37) = (   0.0000000   0.4811252   0.0214225), wk =   0.0138889
        k(   38) = (   0.0000000   0.4811252   0.0428449), wk =   0.0138889
        k(   39) = (   0.0000000   0.4811252   0.0642674), wk =   0.0138889
        k(   40) = (   0.0000000   0.4811252   0.0856898), wk =   0.0138889
        k(   41) = (   0.0000000   0.4811252   0.1071123), wk =   0.0138889
        k(   42) = (   0.0000000   0.4811252  -0.1285347), wk =   0.0069444
        k(   43) = (   0.0000000  -0.5773503   0.0000000), wk =   0.0034722
        k(   44) = (   0.0000000  -0.5773503   0.0214225), wk =   0.0069444
        k(   45) = (   0.0000000  -0.5773503   0.0428449), wk =   0.0069444
        k(   46) = (   0.0000000  -0.5773503   0.0642674), wk =   0.0069444
        k(   47) = (   0.0000000  -0.5773503   0.0856898), wk =   0.0069444
        k(   48) = (   0.0000000  -0.5773503   0.1071123), wk =   0.0069444
        k(   49) = (   0.0000000  -0.5773503  -0.1285347), wk =   0.0034722
        k(   50) = (   0.0833333   0.1443376   0.0000000), wk =   0.0069444
        k(   51) = (   0.0833333   0.1443376   0.0214225), wk =   0.0138889
        k(   52) = (   0.0833333   0.1443376   0.0428449), wk =   0.0138889
        k(   53) = (   0.0833333   0.1443376   0.0642674), wk =   0.0138889
        k(   54) = (   0.0833333   0.1443376   0.0856898), wk =   0.0138889
        k(   55) = (   0.0833333   0.1443376   0.1071123), wk =   0.0138889
        k(   56) = (   0.0833333   0.1443376  -0.1285347), wk =   0.0069444
        k(   57) = (   0.0833333   0.2405626   0.0000000), wk =   0.0138889
        k(   58) = (   0.0833333   0.2405626   0.0214225), wk =   0.0277778
        k(   59) = (   0.0833333   0.2405626   0.0428449), wk =   0.0277778
        k(   60) = (   0.0833333   0.2405626   0.0642674), wk =   0.0277778
[...]
        k(  119) = (   0.2500000   0.4330127  -0.1285347), wk =   0.0069444
        k(  120) = (   0.2500000   0.5292377   0.0000000), wk =   0.0138889
        k(  121) = (   0.2500000   0.5292377   0.0214225), wk =   0.0277778
        k(  122) = (   0.2500000   0.5292377   0.0428449), wk =   0.0277778
        k(  123) = (   0.2500000   0.5292377   0.0642674), wk =   0.0277778
        k(  124) = (   0.2500000   0.5292377   0.0856898), wk =   0.0277778
        k(  125) = (   0.2500000   0.5292377   0.1071123), wk =   0.0277778
        k(  126) = (   0.2500000   0.5292377  -0.1285347), wk =   0.0138889
        k(  127) = (   0.3333333   0.5773503   0.0000000), wk =   0.0023148
        k(  128) = (   0.3333333   0.5773503   0.0214225), wk =   0.0046296
        k(  129) = (   0.3333333   0.5773503   0.0428449), wk =   0.0046296
        k(  130) = (   0.3333333   0.5773503   0.0642674), wk =   0.0046296
        k(  131) = (   0.3333333   0.5773503   0.0856898), wk =   0.0046296
        k(  132) = (   0.3333333   0.5773503   0.1071123), wk =   0.0046296
        k(  133) = (   0.3333333   0.5773503  -0.1285347), wk =   0.0023148

                       cryst. coord.
        k(    1) = (   0.0000000   0.0000000   0.0000000), wk =   0.0011574
        k(    2) = (   0.0000000   0.0000000   0.0833333), wk =   0.0023148
        k(    3) = (   0.0000000   0.0000000   0.1666667), wk =   0.0023148
        k(    4) = (   0.0000000   0.0000000   0.2500000), wk =   0.0023148
        k(    5) = (   0.0000000   0.0000000   0.3333333), wk =   0.0023148
        k(    6) = (   0.0000000   0.0000000   0.4166667), wk =   0.0023148
        k(    7) = (   0.0000000   0.0000000  -0.5000000), wk =   0.0011574
        k(    8) = (   0.0000000   0.0833333   0.0000000), wk =   0.0069444
        k(    9) = (   0.0000000   0.0833333   0.0833333), wk =   0.0138889
        k(   10) = (   0.0000000   0.0833333   0.1666667), wk =   0.0138889
        k(   11) = (   0.0000000   0.0833333   0.2500000), wk =   0.0138889
        k(   12) = (   0.0000000   0.0833333   0.3333333), wk =   0.0138889
        k(   13) = (   0.0000000   0.0833333   0.4166667), wk =   0.0138889
        k(   14) = (   0.0000000   0.0833333  -0.5000000), wk =   0.0069444
        k(   15) = (   0.0000000   0.1666667   0.0000000), wk =   0.0069444
        k(   16) = (   0.0000000   0.1666667   0.0833333), wk =   0.0138889
        k(   17) = (   0.0000000   0.1666667   0.1666667), wk =   0.0138889
        k(   18) = (   0.0000000   0.1666667   0.2500000), wk =   0.0138889
        k(   19) = (   0.0000000   0.1666667   0.3333333), wk =   0.0138889
        k(   20) = (   0.0000000   0.1666667   0.4166667), wk =   0.0138889
        k(   21) = (   0.0000000   0.1666667  -0.5000000), wk =   0.0069444
        k(   22) = (   0.0000000   0.2500000   0.0000000), wk =   0.0069444
        k(   23) = (   0.0000000   0.2500000   0.0833333), wk =   0.0138889
        k(   24) = (   0.0000000   0.2500000   0.1666667), wk =   0.0138889
        k(   25) = (   0.0000000   0.2500000   0.2500000), wk =   0.0138889
        k(   26) = (   0.0000000   0.2500000   0.3333333), wk =   0.0138889
        k(   27) = (   0.0000000   0.2500000   0.4166667), wk =   0.0138889
        k(   28) = (   0.0000000   0.2500000  -0.5000000), wk =   0.0069444
        k(   29) = (   0.0000000   0.3333333   0.0000000), wk =   0.0069444
        k(   30) = (   0.0000000   0.3333333   0.0833333), wk =   0.0138889
        k(   31) = (   0.0000000   0.3333333   0.1666667), wk =   0.0138889
        k(   32) = (   0.0000000   0.3333333   0.2500000), wk =   0.0138889
        k(   33) = (   0.0000000   0.3333333   0.3333333), wk =   0.0138889
        k(   34) = (   0.0000000   0.3333333   0.4166667), wk =   0.0138889
        k(   35) = (   0.0000000   0.3333333  -0.5000000), wk =   0.0069444
        k(   36) = (   0.0000000   0.4166667   0.0000000), wk =   0.0069444
        k(   37) = (   0.0000000   0.4166667   0.0833333), wk =   0.0138889
        k(   38) = (   0.0000000   0.4166667   0.1666667), wk =   0.0138889
        k(   39) = (   0.0000000   0.4166667   0.2500000), wk =   0.0138889
        k(   40) = (   0.0000000   0.4166667   0.3333333), wk =   0.0138889
        k(   41) = (   0.0000000   0.4166667   0.4166667), wk =   0.0138889
        k(   42) = (   0.0000000   0.4166667  -0.5000000), wk =   0.0069444
        k(   43) = (   0.0000000  -0.5000000   0.0000000), wk =   0.0034722
        k(   44) = (   0.0000000  -0.5000000   0.0833333), wk =   0.0069444
        k(   45) = (   0.0000000  -0.5000000   0.1666667), wk =   0.0069444
        k(   46) = (   0.0000000  -0.5000000   0.2500000), wk =   0.0069444
        k(   47) = (   0.0000000  -0.5000000   0.3333333), wk =   0.0069444
        k(   48) = (   0.0000000  -0.5000000   0.4166667), wk =   0.0069444
        k(   49) = (   0.0000000  -0.5000000  -0.5000000), wk =   0.0034722
        k(   50) = (   0.0833333   0.0833333   0.0000000), wk =   0.0069444
        k(   51) = (   0.0833333   0.0833333   0.0833333), wk =   0.0138889
        k(   52) = (   0.0833333   0.0833333   0.1666667), wk =   0.0138889
        k(   53) = (   0.0833333   0.0833333   0.2500000), wk =   0.0138889
        k(   54) = (   0.0833333   0.0833333   0.3333333), wk =   0.0138889
        k(   55) = (   0.0833333   0.0833333   0.4166667), wk =   0.0138889
        k(   56) = (   0.0833333   0.0833333  -0.5000000), wk =   0.0069444
        k(   57) = (   0.0833333   0.1666667   0.0000000), wk =   0.0138889
        k(   58) = (   0.0833333   0.1666667   0.0833333), wk =   0.0277778
        k(   59) = (   0.0833333   0.1666667   0.1666667), wk =   0.0277778
        k(   60) = (   0.0833333   0.1666667   0.2500000), wk =   0.0277778
[...]
        k(  119) = (   0.2500000   0.2500000  -0.5000000), wk =   0.0069444
        k(  120) = (   0.2500000   0.3333333   0.0000000), wk =   0.0138889
        k(  121) = (   0.2500000   0.3333333   0.0833333), wk =   0.0277778
        k(  122) = (   0.2500000   0.3333333   0.1666667), wk =   0.0277778
        k(  123) = (   0.2500000   0.3333333   0.2500000), wk =   0.0277778
        k(  124) = (   0.2500000   0.3333333   0.3333333), wk =   0.0277778
        k(  125) = (   0.2500000   0.3333333   0.4166667), wk =   0.0277778
        k(  126) = (   0.2500000   0.3333333  -0.5000000), wk =   0.0138889
        k(  127) = (   0.3333333   0.3333333   0.0000000), wk =   0.0023148
        k(  128) = (   0.3333333   0.3333333   0.0833333), wk =   0.0046296
        k(  129) = (   0.3333333   0.3333333   0.1666667), wk =   0.0046296
        k(  130) = (   0.3333333   0.3333333   0.2500000), wk =   0.0046296
        k(  131) = (   0.3333333   0.3333333   0.3333333), wk =   0.0046296
        k(  132) = (   0.3333333   0.3333333   0.4166667), wk =   0.0046296
        k(  133) = (   0.3333333   0.3333333  -0.5000000), wk =   0.0023148

     Check: negative core charge=   -0.000002

     Initial potential from superposition of free atoms

     starting charge      51.9981, renormalised to      52.0000
     Starting wfcs are   36 randomized atomic wfcs
     Checking if some PAW data can be deallocated...

     Self-consistent Calculation

     iteration #  1     ecut=    30.00 Ry     beta= 0.70
     Davidson diagonalization with overlap

     ethr =  1.00E-02,  avg # of iterations =  7.9

     total energy              =    -918.07505681 Ry
     estimated scf accuracy    <      23.23131945 Ry

[...]

     c_bands:  1 eigenvalues not converged
     c_bands:  1 eigenvalues not converged
     c_bands:  1 eigenvalues not converged
     c_bands:  1 eigenvalues not converged
     ethr =  1.63E-07,  avg # of iterations =  8.5

[...]

     c_bands:  1 eigenvalues not converged
     c_bands:  1 eigenvalues not converged
     ethr =  3.76E-11,  avg # of iterations =  1.4

[...]

     total energy              =    -931.23744281 Ry
     estimated scf accuracy    <       0.00000003 Ry

     iteration # 19     ecut=    30.00 Ry     beta= 0.70
     Davidson diagonalization with overlap

     ethr =  3.76E-11,  avg # of iterations =  4.7

     End of self-consistent calculation

          k = 0.0000 0.0000 0.0000 (   291 PWs)   bands (ev):

   -12.0754 -12.0619  18.2220  18.4612  35.4575  35.4575  35.5793  35.5793
    40.2297  42.5836  50.8063  50.8063  50.8192  50.8192  54.5063  59.4464
    66.2511  66.2511  66.3268  66.3268  69.9871  70.8154  70.9502  74.3052
    87.7590  88.4663

     occupation numbers
     1.0000   1.0000   1.0000   1.0000   1.0000   1.0000   1.0000   1.0000
     1.0000   1.0000   1.0000   1.0000   1.0000   1.0000   1.0000   1.0000
     1.0000   1.0000   1.0000   1.0000   1.0000   1.0000   1.0000   1.0000
     1.0000   1.0000

[...]

          k = 0.3333 0.5774-0.1285 (   288 PWs)   bands (ev):

     1.5296   1.5296   9.8759   9.8759  12.6495  12.6495  24.9831  24.9831
    45.2161  45.2161  58.1956  58.1956  59.2275  59.2275  62.1140  62.1140
    66.5238  66.5238  71.3497  71.3497  73.8797  73.8797  79.5015  79.5015
    80.2708  80.2708

     occupation numbers
     1.0000   1.0000   1.0000   1.0000   1.0000   1.0000   1.0000   1.0000
     1.0000   1.0000   1.0000   1.0000   1.0000   1.0000   1.0000   1.0000
     1.0000   1.0000   1.0000   1.0000   1.0000   1.0000   1.0000   1.0000
     1.0000   1.0000

     highest occupied level (ev):    88.4690

!    total energy              =    -931.23744282 Ry

     total all-electron energy =    -19327.897865 Ry
     estimated scf accuracy    <          2.0E-09 Ry

     The total energy is the sum of the following terms:
     one-electron contribution =      77.10013924 Ry
     hartree contribution      =     112.57701421 Ry
     xc contribution           =     -85.21193667 Ry
     ewald contribution        =    -392.33788791 Ry
     one-center paw contrib.   =    -643.36477169 Ry
      -> PAW hartree energy AE =     322.56570272 Ry
      -> PAW hartree energy PS =    -321.52261373 Ry
      -> PAW xc energy AE      =    -266.08074218 Ry
      -> PAW xc energy PS      =      36.77109567 Ry
      -> total E_H with PAW    =     113.62010319 Ry
      -> total E_XC with PAW   =    -314.52158317 Ry

     convergence has been achieved in  19 iterations

     Writing all to output data dir ./out/MoS2.save/

     General routines

     Parallel routines

     PAW routines

   This run was terminated on:  17:13:56  13Jul2022

   JOB DONE.