     Program PWSCF v.7.0 starts on 13Jul2022 at 17:42:30
        Git branch: master
        Last git commit: 28725dfbb9ee577d70cbdc372282dc9039605ca5
        Last git commit date: Tue Dec 21 15:37:27 2021 +0000
        Last git commit subject: Merge branch merge-develop-to-master into mas..

     R & G space division:  proc/nbgrp/npool/nimage =      15

     Reading input from mos2_vc_relax.in

     Current dimensions of program PWSCF are:
     Max number of different atomic species (ntypx) = 10
     Max number of k-points (npk) =  40000
     Max angular momentum in pseudopotentials (lmaxx) =  4
     file Mo.pbe-spn-kjpaw_psl.1.0.0.UPF: wavefunction(s)  4S 4D renormalized
     file S.pbe-nl-kjpaw_psl.1.0.0.UPF: wavefunction(s)  3S renormalized

     Subspace diagonalization in iterative solution of the eigenvalue problem:
     a serial algorithm will be used

     Using Slab Decomposition

     bravais-lattice index     =            4
     lattice parameter (alat)  =       6.0288  a.u.
     unit-cell volume          =     885.0514 (a.u.)^3
     number of atoms/cell      =            6
     number of atomic types    =            2
     number of electrons       =        52.00
     number of Kohn-Sham states=           26
     kinetic-energy cutoff     =      30.0000  Ry
     charge density cutoff     =     120.0000  Ry
     scf convergence threshold =      1.0E-08
     mixing beta               =       0.7000
     number of iterations used =            8  plain     mixing
     energy convergence thresh.=      1.0E-06
     force convergence thresh. =      1.0E-05
     press convergence thresh. =      5.0E-01
     Exchange-correlation= SLA  PW   PBX  PBC
                           (   1   4   3   4   0   0   0)
     nstep                     =           50

     celldm(1)=   6.028823  celldm(2)=   0.000000  celldm(3)=   4.663803
     celldm(4)=   0.000000  celldm(5)=   0.000000  celldm(6)=   0.000000

     crystal axes: (cart. coord. in units of alat)
               a(1) = (   1.000000   0.000000   0.000000 )
               a(2) = (  -0.500000   0.866025   0.000000 )
               a(3) = (   0.000000   0.000000   4.663803 )

     reciprocal axes: (cart. coord. in units 2 pi/alat)
               b(1) = (  1.000000  0.577350 -0.000000 )
               b(2) = (  0.000000  1.154701  0.000000 )
               b(3) = (  0.000000 -0.000000  0.214417 )

     PseudoPot. # 1 for Mo read from file:
     ./pseudo/Mo.pbe-spn-kjpaw_psl.1.0.0.UPF
     MD5 check sum: 4396e0c640fcce5c25f020efccf1ab12
     Pseudo is Projector augmented-wave + core cor, Zval = 14.0
     Generated using &quot;atomic&quot; code by A. Dal Corso  v.6.3
     Shape of augmentation charge: PSQ
     Using radial grid of 1229 points,  6 beta functions with:
                l(1) =   0
                l(2) =   0
                l(3) =   1
                l(4) =   1
                l(5) =   2
                l(6) =   2
     Q(r) pseudized with 0 coefficients

     PseudoPot. # 2 for S  read from file:
     ./pseudo/S.pbe-nl-kjpaw_psl.1.0.0.UPF
     MD5 check sum: a0db168fa6a42edaf368e88c1856b871
     Pseudo is Projector augmented-wave + core cor, Zval =  6.0
     Generated using &quot;atomic&quot; code by A. Dal Corso  v.6.3
     Shape of augmentation charge: PSQ
     Using radial grid of 1151 points,  4 beta functions with:
                l(1) =   0
                l(2) =   0
                l(3) =   1
                l(4) =   1
     Q(r) pseudized with 0 coefficients

     atomic species   valence    mass     pseudopotential
        Mo            14.00    95.96000     Mo( 1.00)
        S              6.00    32.06500     S ( 1.00)

     24 Sym. Ops., with inversion, found (12 have fractional translation)

   Cartesian axes

     site n.     atom                  positions (alat units)
         1           Mo  tau(   1) = (  -0.0000000   0.5773503   1.1659506  )
         2           Mo  tau(   2) = (   0.5000000   0.2886751   3.4978519  )
         3           S   tau(   3) = (  -0.0000000   0.5773503   3.9883627  )
         4           S   tau(   4) = (   0.5000000   0.2886751   0.6754399  )
         5           S   tau(   5) = (   0.5000000   0.2886751   1.6564614  )
         6           S   tau(   6) = (   0.0000000   0.5773503   3.0073412  )

     number of k points=    38
                       cart. coord. in units 2pi/alat
        k(    1) = (   0.0000000   0.0000000   0.0000000), wk =   0.0069444
        k(    2) = (   0.0000000   0.0000000  -0.1072087), wk =   0.0069444
        k(    3) = (   0.0000000   0.0962250   0.0000000), wk =   0.0416667
        k(    4) = (   0.0000000   0.0962250  -0.1072087), wk =   0.0416667
        k(    5) = (   0.0000000   0.1924501   0.0000000), wk =   0.0416667
        k(    6) = (   0.0000000   0.1924501  -0.1072087), wk =   0.0416667
        k(    7) = (   0.0000000   0.2886751   0.0000000), wk =   0.0416667
        k(    8) = (   0.0000000   0.2886751  -0.1072087), wk =   0.0416667
        k(    9) = (   0.0000000   0.3849002   0.0000000), wk =   0.0416667
        k(   10) = (   0.0000000   0.3849002  -0.1072087), wk =   0.0416667
        k(   11) = (   0.0000000   0.4811252   0.0000000), wk =   0.0416667
        k(   12) = (   0.0000000   0.4811252  -0.1072087), wk =   0.0416667
        k(   13) = (   0.0000000  -0.5773503   0.0000000), wk =   0.0208333
        k(   14) = (   0.0000000  -0.5773503  -0.1072087), wk =   0.0208333
        k(   15) = (   0.0833333   0.1443376   0.0000000), wk =   0.0416667
        k(   16) = (   0.0833333   0.1443376  -0.1072087), wk =   0.0416667
        k(   17) = (   0.0833333   0.2405626   0.0000000), wk =   0.0833333
        k(   18) = (   0.0833333   0.2405626  -0.1072087), wk =   0.0833333
        k(   19) = (   0.0833333   0.3367877   0.0000000), wk =   0.0833333
        k(   20) = (   0.0833333   0.3367877  -0.1072087), wk =   0.0833333
        k(   21) = (   0.0833333   0.4330127   0.0000000), wk =   0.0833333
        k(   22) = (   0.0833333   0.4330127  -0.1072087), wk =   0.0833333
        k(   23) = (   0.0833333   0.5292377   0.0000000), wk =   0.0833333
        k(   24) = (   0.0833333   0.5292377  -0.1072087), wk =   0.0833333
        k(   25) = (   0.1666667   0.2886751   0.0000000), wk =   0.0416667
        k(   26) = (   0.1666667   0.2886751  -0.1072087), wk =   0.0416667
        k(   27) = (   0.1666667   0.3849002   0.0000000), wk =   0.0833333
        k(   28) = (   0.1666667   0.3849002  -0.1072087), wk =   0.0833333
        k(   29) = (   0.1666667   0.4811252   0.0000000), wk =   0.0833333
        k(   30) = (   0.1666667   0.4811252  -0.1072087), wk =   0.0833333
        k(   31) = (   0.1666667   0.5773503   0.0000000), wk =   0.0416667
        k(   32) = (   0.1666667   0.5773503  -0.1072087), wk =   0.0416667
        k(   33) = (   0.2500000   0.4330127   0.0000000), wk =   0.0416667
        k(   34) = (   0.2500000   0.4330127  -0.1072087), wk =   0.0416667
        k(   35) = (   0.2500000   0.5292377   0.0000000), wk =   0.0833333
        k(   36) = (   0.2500000   0.5292377  -0.1072087), wk =   0.0833333
        k(   37) = (   0.3333333   0.5773503   0.0000000), wk =   0.0138889
        k(   38) = (   0.3333333   0.5773503  -0.1072087), wk =   0.0138889

     Check: negative core charge=   -0.000012

     Initial potential from superposition of free atoms

     starting charge      51.9981, renormalised to      52.0000
     Starting wfcs are   36 randomized atomic wfcs
     Checking if some PAW data can be deallocated...

     Self-consistent Calculation

     iteration #  1     ecut=    30.00 Ry     beta= 0.70
     Davidson diagonalization with overlap
     ethr =  1.00E-02,  avg # of iterations =  2.0

     Threshold (ethr) on eigenvalues was too large:
     Diagonalizing with lowered threshold

     Davidson diagonalization with overlap
     ethr =  2.86E-04,  avg # of iterations =  3.4

     total energy              =    -993.19650284 Ry
     estimated scf accuracy    <       0.21986820 Ry

[...]

     End of self-consistent calculation

          k = 0.0000 0.0000 0.0000 (  2413 PWs)   bands (ev):

   -53.7954 -53.7940 -27.8958 -27.8911 -27.6915 -27.6915 -27.6908 -27.6908
    -6.7094  -6.6906  -5.4276  -5.3933   1.6847   1.8556   4.7816   4.7816
     4.7855   4.7855   5.3148   5.8858   5.8861   5.8861   5.8886   5.8886
     7.1990   7.6086

[...]

     highest occupied level (ev):     7.6086

!    total energy              =    -993.27348482 Ry

     total all-electron energy =    -19389.933907 Ry
     estimated scf accuracy    <          9.6E-09 Ry

     The total energy is the sum of the following terms:
     one-electron contribution =    -305.48127452 Ry
     hartree contribution      =     173.44855809 Ry
     xc contribution           =     -59.32971702 Ry
     ewald contribution        =    -162.72209945 Ry
     one-center paw contrib.   =    -639.18895192 Ry

     convergence has been achieved in  28 iterations

     Forces acting on atoms (cartesian axes, Ry/au):

     atom    1 type  1   force =     0.00000000   -0.00000000    0.00000000
     atom    2 type  1   force =     0.00000000    0.00000000    0.00000000
     atom    3 type  2   force =     0.00000000   -0.00000000   -0.00042129
     atom    4 type  2   force =     0.00000000    0.00000000    0.00042129
     atom    5 type  2   force =     0.00000000    0.00000000   -0.00042129
     atom    6 type  2   force =     0.00000000   -0.00000000    0.00042129

     Total force =     0.000843     Total SCF correction =     0.000208
     SCF correction compared to forces is large: reduce conv_thr to get better values

     Computing stress (Cartesian axis) and pressure

          total   stress  (Ry/bohr**3)                   (kbar)     P=      -98.68
  -0.00068244  -0.00000000   0.00000000         -100.39       -0.00        0.00
  -0.00000000  -0.00068244   0.00000000           -0.00     -100.39        0.00
   0.00000000   0.00000000  -0.00064764            0.00        0.00      -95.27

     BFGS Geometry Optimization
     Energy error            =      0.0E+00 Ry
     Gradient error          =      4.2E-04 Ry/Bohr
     Cell gradient error     =      1.0E+02 kbar

     number of scf cycles    =   1
     number of bfgs steps    =   0

     enthalpy           new  =    -993.2734848228 Ry

     new trust radius        =       0.1015122261 bohr
ibrav =      4
 celldm(1) =      5.92596582
 celldm(3) =      4.66793028
Input lattice vectors:
     0.98293901    -0.00000000     0.00000000
    -0.49146951     0.85125016     0.00000000
     0.00000000     0.00000000     4.58829079
New lattice vectors in INITIAL alat:
     0.98293901     0.00000000     0.00000000
    -0.49146951     0.85125016     0.00000000
     0.00000000     0.00000000     4.58829079
New lattice vectors in NEW alat (for information only):
     1.00000000     0.00000000     0.00000000
    -0.50000000     0.86602540     0.00000000
     0.00000000     0.00000000     4.66793028
Discrepancy in bohr =     0.000000    0.000000    0.000000
     new conv_thr            =       0.0000000100 Ry

     new unit-cell volume =    841.26422 a.u.^3 (   124.66250 Ang^3 )
     density =      4.26489 g/cm^3

CELL_PARAMETERS (alat=  6.02882349)
   0.982939015   0.000000000   0.000000000
  -0.491469507   0.851250157   0.000000000
   0.000000000   0.000000000   4.588290791

ATOMIC_POSITIONS (crystal)
Mo            0.3333333300        0.6666666700        0.2500000000
Mo            0.6666666700        0.3333333300        0.7500000000
S             0.3333333300        0.6666666700        0.8551590165
S             0.6666666700        0.3333333300        0.1448409835
S             0.6666666600        0.3333333300        0.3551590165
S             0.3333333400        0.6666666700        0.6448409835

     Writing config-only to output data dir ./out/MoS2.save/
     NEW-OLD atomic charge density approx. for the potential

     Check: negative core charge=   -0.000012
     extrapolated charge   49.29354, renormalised to   52.00000

[...]

     iteration #  1     ecut=    30.00 Ry     beta= 0.70
     Davidson diagonalization with overlap
     c_bands:  2 eigenvalues not converged
     c_bands:  2 eigenvalues not converged
     c_bands:  2 eigenvalues not converged
     c_bands:  2 eigenvalues not converged
     c_bands:  2 eigenvalues not converged
     ethr =  1.00E-06,  avg # of iterations = 26.0

[...]

     Total force =     0.066623     Total SCF correction =     0.000053

[...]

     Energy error            =      1.8E-02 Ry
     Gradient error          =      3.3E-02 Ry/Bohr
     Cell gradient error     =      2.0E+01 kbar

[...]

     enthalpy           old  =    -993.2734848228 Ry
     enthalpy           new  =    -993.2911035743 Ry

     CASE: enthalpy          _new < enthalpy          _old

[...]

     iteration #  1     ecut=    30.00 Ry     beta= 0.70
     Davidson diagonalization with overlap
     c_bands:  1 eigenvalues not converged
     c_bands:  2 eigenvalues not converged
     c_bands:  4 eigenvalues not converged
     c_bands:  2 eigenvalues not converged
     c_bands:  4 eigenvalues not converged
     c_bands:  2 eigenvalues not converged
     c_bands:  2 eigenvalues not converged
     c_bands:  2 eigenvalues not converged
     c_bands:  2 eigenvalues not converged
     ethr =  1.00E-06,  avg # of iterations = 19.3

[...]

     Total force =     0.000824     Total SCF correction =     0.000049

[...]

     Energy error            =      1.6E-06 Ry
     Gradient error          =      4.9E-06 Ry/Bohr
     Cell gradient error     =      1.1E-01 kbar

     number of scf cycles    =  12
     number of bfgs steps    =  11

     enthalpy           old  =    -993.3312507301 Ry
     enthalpy           new  =    -993.3312523202 Ry

     CASE: enthalpy          _new < enthalpy          _old

     new trust radius        =       0.0004375040 bohr
ibrav =      4
 celldm(1) =      5.89056361
 celldm(3) =      4.04596488
Input lattice vectors:
     0.97706686     0.00000000     0.00000000
    -0.48853343     0.84616472     0.00000000
    -0.00000000    -0.00000000     3.95317819
New lattice vectors in INITIAL alat:
     0.97706686     0.00000000     0.00000000
    -0.48853343     0.84616472     0.00000000
     0.00000000     0.00000000     3.95317819
New lattice vectors in NEW alat (for information only):
     1.00000000     0.00000000     0.00000000
    -0.50000000     0.86602540     0.00000000
     0.00000000     0.00000000     4.04596488
Discrepancy in bohr =     0.000000    0.000000    0.000000
     new conv_thr            =            1.0E-10 Ry

     new unit-cell volume =    716.18182 a.u.^3 (   106.12720 Ang^3 )
     density =      5.00976 g/cm^3

[...]

ATOMIC_POSITIONS (crystal)
Mo            0.3333333300        0.6666666700        0.2500000000
Mo            0.6666666700        0.3333333300        0.7500000000
S             0.3333333300        0.6666666700        0.8755855419
S             0.6666666700        0.3333333300        0.1244144581
S             0.6666666600        0.3333333300        0.3755855419
S             0.3333333400        0.6666666700        0.6244144581

     Writing config-only to output data dir ./out/MoS2.save/
     NEW-OLD atomic charge density approx. for the potential

     Check: negative core charge=   -0.000007
     extrapolated charge   51.99341, renormalised to   52.00000

[...]

     Threshold (ethr) on eigenvalues was too large:
     Diagonalizing with lowered threshold

     Davidson diagonalization with overlap
     ethr =  3.18E-08,  avg # of iterations =  3.0

[...]

     Energy error            =      2.7E-08 Ry
     Gradient error          =      2.1E-06 Ry/Bohr
     Cell gradient error     =      1.0E-02 kbar
ibrav =      4
 celldm(1) =      5.89056361
 celldm(3) =      4.04596488
Input lattice vectors:
     0.97706686     0.00000000     0.00000000
    -0.48853343     0.84616472     0.00000000
     0.00000000     0.00000000     3.95317819
New lattice vectors in INITIAL alat:
     0.97706686     0.00000000     0.00000000
    -0.48853343     0.84616472     0.00000000
     0.00000000     0.00000000     3.95317819
New lattice vectors in NEW alat (for information only):
     1.00000000     0.00000000     0.00000000
    -0.50000000     0.86602540     0.00000000
     0.00000000     0.00000000     4.04596488
Discrepancy in bohr =     0.000000    0.000000    0.000000

     bfgs converged in  13 scf cycles and  12 bfgs steps
     (criteria: energy <  1.0E-06 Ry, force <  1.0E-05Ry/Bohr, cell <  5.0E-01kbar)

     End of BFGS Geometry Optimization

     Final enthalpy           =    -993.3312523476 Ry

     File ./out/MoS2.bfgs deleted, as requested
Begin final coordinates
     new unit-cell volume =    716.18182 a.u.^3 (   106.12720 Ang^3 )
     density =      5.00976 g/cm^3

CELL_PARAMETERS (alat=  6.02882349)
   0.977066856   0.000000000   0.000000000
  -0.488533428   0.846164718   0.000000000
   0.000000000   0.000000000   3.953178189

ATOMIC_POSITIONS (crystal)
Mo            0.3333333300        0.6666666700        0.2500000000
Mo            0.6666666700        0.3333333300        0.7500000000
S             0.3333333300        0.6666666700        0.8755855419
S             0.6666666700        0.3333333300        0.1244144581
S             0.6666666600        0.3333333300        0.3755855419
S             0.3333333400        0.6666666700        0.6244144581
End final coordinates

     Writing config-only to output data dir ./out/MoS2.save/

     Final scf calculation at the relaxed structure.
     The G-vectors are recalculated for the final unit cell
     Results may differ from those at the preceding step.

     Using Slab Decomposition

     bravais-lattice index     =            4
     lattice parameter (alat)  =       6.0288  a.u.
     unit-cell volume          =     716.1818 (a.u.)^3
     number of atoms/cell      =            6
     number of atomic types    =            2
     number of electrons       =        52.00
     number of Kohn-Sham states=           26
     kinetic-energy cutoff     =      30.0000  Ry
     charge density cutoff     =     120.0000  Ry
     scf convergence threshold =      1.0E-10
     mixing beta               =       0.7000
     number of iterations used =            8  plain     mixing
     press convergence thresh. =      5.0E-01
     Exchange-correlation= SLA  PW   PBX  PBC
                           (   1   4   3   4   0   0   0)

     celldm(1)=   6.028823  celldm(2)=   0.000000  celldm(3)=   4.663803
     celldm(4)=   0.000000  celldm(5)=   0.000000  celldm(6)=   0.000000

     crystal axes: (cart. coord. in units of alat)
               a(1) = (   0.977067   0.000000   0.000000 )
               a(2) = (  -0.488533   0.846165   0.000000 )
               a(3) = (   0.000000   0.000000   3.953178 )

     reciprocal axes: (cart. coord. in units 2 pi/alat)
               b(1) = (  1.023471  0.590901 -0.000000 )
               b(2) = (  0.000000  1.181803  0.000000 )
               b(3) = (  0.000000 -0.000000  0.252961 )

     PseudoPot. # 1 for Mo read from file:
     ./pseudo/Mo.pbe-spn-kjpaw_psl.1.0.0.UPF
     MD5 check sum: 4396e0c640fcce5c25f020efccf1ab12
     Pseudo is Projector augmented-wave + core cor, Zval = 14.0
     Generated using &quot;atomic&quot; code by A. Dal Corso  v.6.3
     Shape of augmentation charge: PSQ
     Using radial grid of 1229 points,  6 beta functions with:
                l(1) =   0
                l(2) =   0
                l(3) =   1
                l(4) =   1
                l(5) =   2
                l(6) =   2
     Q(r) pseudized with 0 coefficients

     PseudoPot. # 2 for S  read from file:
     ./pseudo/S.pbe-nl-kjpaw_psl.1.0.0.UPF
     MD5 check sum: a0db168fa6a42edaf368e88c1856b871
     Pseudo is Projector augmented-wave + core cor, Zval =  6.0
     Generated using &quot;atomic&quot; code by A. Dal Corso  v.6.3
     Shape of augmentation charge: PSQ
     Using radial grid of 1151 points,  4 beta functions with:
                l(1) =   0
                l(2) =   0
                l(3) =   1
                l(4) =   1
     Q(r) pseudized with 0 coefficients

     atomic species   valence    mass     pseudopotential
        Mo            14.00    95.96000     Mo( 1.00)
        S              6.00    32.06500     S ( 1.00)

     24 Sym. Ops., with inversion, found (12 have fractional translation)

   Cartesian axes

     site n.     atom                  positions (alat units)
         1           Mo  tau(   1) = (  -0.0000000   0.5641098   0.9882945  )
         2           Mo  tau(   2) = (   0.4885334   0.2820549   2.9648836  )
         3           S   tau(   3) = (  -0.0000000   0.5641098   3.4613457  )
         4           S   tau(   4) = (   0.4885334   0.2820549   0.4918325  )
         5           S   tau(   5) = (   0.4885334   0.2820549   1.4847566  )
         6           S   tau(   6) = (   0.0000000   0.5641098   2.4684216  )

     number of k points=    38
                       cart. coord. in units 2pi/alat
        k(    1) = (   0.0000000   0.0000000   0.0000000), wk =   0.0069444
        k(    2) = (   0.0000000   0.0000000  -0.1264805), wk =   0.0069444
        k(    3) = (   0.0000000   0.0984836   0.0000000), wk =   0.0416667
        k(    4) = (   0.0000000   0.0984836  -0.1264805), wk =   0.0416667
        k(    5) = (   0.0000000   0.1969672   0.0000000), wk =   0.0416667
        k(    6) = (   0.0000000   0.1969672  -0.1264805), wk =   0.0416667
        k(    7) = (   0.0000000   0.2954507   0.0000000), wk =   0.0416667
        k(    8) = (   0.0000000   0.2954507  -0.1264805), wk =   0.0416667
        k(    9) = (   0.0000000   0.3939343   0.0000000), wk =   0.0416667
        k(   10) = (   0.0000000   0.3939343  -0.1264805), wk =   0.0416667
        k(   11) = (   0.0000000   0.4924179   0.0000000), wk =   0.0416667
        k(   12) = (   0.0000000   0.4924179  -0.1264805), wk =   0.0416667
        k(   13) = (   0.0000000  -0.5909015   0.0000000), wk =   0.0208333
        k(   14) = (   0.0000000  -0.5909015  -0.1264805), wk =   0.0208333
        k(   15) = (   0.0852893   0.1477254   0.0000000), wk =   0.0416667
        k(   16) = (   0.0852893   0.1477254  -0.1264805), wk =   0.0416667
        k(   17) = (   0.0852893   0.2462090   0.0000000), wk =   0.0833333
        k(   18) = (   0.0852893   0.2462090  -0.1264805), wk =   0.0833333
        k(   19) = (   0.0852893   0.3446925   0.0000000), wk =   0.0833333
        k(   20) = (   0.0852893   0.3446925  -0.1264805), wk =   0.0833333
        k(   21) = (   0.0852893   0.4431761   0.0000000), wk =   0.0833333
        k(   22) = (   0.0852893   0.4431761  -0.1264805), wk =   0.0833333
        k(   23) = (   0.0852893   0.5416597   0.0000000), wk =   0.0833333
        k(   24) = (   0.0852893   0.5416597  -0.1264805), wk =   0.0833333
        k(   25) = (   0.1705786   0.2954507   0.0000000), wk =   0.0416667
        k(   26) = (   0.1705786   0.2954507  -0.1264805), wk =   0.0416667
        k(   27) = (   0.1705786   0.3939343   0.0000000), wk =   0.0833333
        k(   28) = (   0.1705786   0.3939343  -0.1264805), wk =   0.0833333
        k(   29) = (   0.1705786   0.4924179   0.0000000), wk =   0.0833333
        k(   30) = (   0.1705786   0.4924179  -0.1264805), wk =   0.0833333
        k(   31) = (   0.1705786   0.5909015   0.0000000), wk =   0.0416667
        k(   32) = (   0.1705786   0.5909015  -0.1264805), wk =   0.0416667
        k(   33) = (   0.2558679   0.4431761   0.0000000), wk =   0.0416667
        k(   34) = (   0.2558679   0.4431761  -0.1264805), wk =   0.0416667
        k(   35) = (   0.2558679   0.5416597   0.0000000), wk =   0.0833333
        k(   36) = (   0.2558679   0.5416597  -0.1264805), wk =   0.0833333
        k(   37) = (   0.3411571   0.5909015   0.0000000), wk =   0.0138889
        k(   38) = (   0.3411571   0.5909015  -0.1264805), wk =   0.0138889

     Check: negative core charge=   -0.000014

     Initial potential from superposition of free atoms

     starting charge      51.9981, renormalised to      52.0000
     Starting wfcs are   36 randomized atomic wfcs
     Checking if some PAW data can be deallocated...

     Self-consistent Calculation

[...]

     total energy              =    -993.25914227 Ry
     estimated scf accuracy    <          2.4E-10 Ry

     iteration # 24     ecut=    30.00 Ry     beta= 0.70
     Davidson diagonalization with overlap
     ethr =  4.56E-13,  avg # of iterations =  3.3

     End of self-consistent calculation

[...]

          k = 0.3412 0.5909-0.1265 (  1992 PWs)   bands (ev):

   -50.5433 -50.5433 -24.7956 -24.7956 -24.7478 -24.7478 -24.6437 -24.6437
    -1.4655  -1.4655  -1.4329  -1.4329   4.8814   4.8814   5.6810   5.6810
     6.2575   6.2575   6.7318   6.7318   7.5632   7.5632   8.1326   8.1326
    10.4896  10.4896

     highest occupied level (ev):    10.9295

!    total energy              =    -993.25914227 Ry

     total all-electron energy =    -19389.919565 Ry
     estimated scf accuracy    <          6.4E-11 Ry

     The total energy is the sum of the following terms:
     one-electron contribution =    -173.43458025 Ry
     hartree contribution      =     113.43705326 Ry
     xc contribution           =     -59.52109862 Ry
     ewald contribution        =    -234.53881342 Ry
     one-center paw contrib.   =    -639.20170325 Ry

     convergence has been achieved in  24 iterations

     Forces acting on atoms (cartesian axes, Ry/au):

     atom    1 type  1   force =     0.00000000    0.00000000   -0.00000000
     atom    2 type  1   force =     0.00000000   -0.00000000    0.00000000
     atom    3 type  2   force =     0.00000000    0.00000000   -0.00000067
     atom    4 type  2   force =    -0.00000000   -0.00000000    0.00000067
     atom    5 type  2   force =     0.00000000    0.00000000   -0.00000067
     atom    6 type  2   force =     0.00000000   -0.00000000    0.00000067

     Total force =     0.000001     Total SCF correction =     0.000019
     SCF correction compared to forces is large: reduce conv_thr to get better values

     Computing stress (Cartesian axis) and pressure

          total   stress  (Ry/bohr**3)                   (kbar)     P=      -70.17
  -0.00038660   0.00000000   0.00000000          -56.87        0.00        0.00
   0.00000000  -0.00038660   0.00000000            0.00      -56.87        0.00
   0.00000000   0.00000000  -0.00065777            0.00        0.00      -96.76

     Writing all to output data dir ./out/MoS2.save/

     General routines

     Parallel routines

   This run was terminated on:  17:46:41  13Jul2022

   JOB DONE.